Fe  H  K Ni  O                          
   1.00000000000000     
     5.6647332386211717    0.0209781331211398   -0.0651254224851822
    -1.4061663550417651    7.1762832824529426    0.9181163005783004
    -0.1053841327454005   -0.0062780204212295    9.8177382571993075
   Fe   H    K    Ni   O 
     2     8     2     6    20
Direct
  0.9766734947093170  0.7195678061162454  0.9055171338297896
  0.9770953829209574  0.7160109474767538  0.4067812826224682
  0.8041796075156071  0.1039491007138409  0.3224735852036531
  0.8565795292068970  0.3255588021835933  0.3021740546552110
  0.6238573583579878  0.1084843968271301  0.9953154972725713
  0.6774414303262688  0.3253833445472836  0.9758272350949682
  0.3637424471511821  0.3334611911945871  0.7252705701332403
  0.3106981444952197  0.1109700024331772  0.7495696927354558
  0.1241468917519839  0.1120800031817240  0.0851818131401600
  0.1840044124805686  0.3303621273083337  0.0683044671982813
  0.8237405862055027  0.2215715280366197  0.6614759588959842
  0.3223795878476352  0.2161562102283057  0.3948927056719427
  0.4776304916278562  0.7194561671240933  0.9060716712298884
  0.7269305366446446  0.7189924761760054  0.6553612619235025
  0.7273124190011373  0.7195385286294353  0.1560668183422464
  0.4770639999231463  0.7176779956435340  0.4067280423797754
  0.2278128859256654  0.7182773734943879  0.1564951460203474
  0.2266274667451071  0.7175540252117187  0.6557630967862096
  0.5056198086236421  0.8545464598867696  0.5653428753414573
  0.9481016331375685  0.5818993629547080  0.2492441139962907
  0.7800502952936625  0.8572719641619173  0.3055052633184232
  0.0063451366022136  0.8540776378305992  0.0619201785418824
  0.0064695109038979  0.8548222719864000  0.5612450714202595
  0.7776640914873099  0.8580547812794137  0.8044608626251133
  0.4486351572613430  0.5836501511567391  0.2472855593800247
  0.5067054926225723  0.8544378853128904  0.0671657312000633
  0.9476109944808471  0.5831091301160569  0.7495568468835998
  0.6894407137261709  0.5824083746202859  0.5034712857287005
  0.6901547179746217  0.5864258578919959  0.0027222640428164
  0.2636365697825482  0.8505702541304103  0.3107822545735530
  0.2644898292445248  0.8524156856631819  0.8088443954856999
  0.1773704432350058  0.5815203597952845  0.0060871145473982
  0.4478675182321439  0.5828601656300165  0.7459352902332839
  0.1731964929957286  0.5757332471127015  0.5075934904776886
  0.8114893824039129  0.2149553905177797  0.3705460633916857
  0.7114461563452679  0.2170145759628426  0.9365503250594855
  0.3144903271335053  0.2200578502690931  0.6798705235056985
  0.2232322198997778  0.2185496461324874  0.1224526716103398
 
  0.00000000E+00  0.00000000E+00  0.00000000E+00
  0.00000000E+00  0.00000000E+00  0.00000000E+00
  0.00000000E+00  0.00000000E+00  0.00000000E+00
  0.00000000E+00  0.00000000E+00  0.00000000E+00
  0.00000000E+00  0.00000000E+00  0.00000000E+00
  0.00000000E+00  0.00000000E+00  0.00000000E+00
  0.00000000E+00  0.00000000E+00  0.00000000E+00
  0.00000000E+00  0.00000000E+00  0.00000000E+00
  0.00000000E+00  0.00000000E+00  0.00000000E+00
  0.00000000E+00  0.00000000E+00  0.00000000E+00
  0.00000000E+00  0.00000000E+00  0.00000000E+00
  0.00000000E+00  0.00000000E+00  0.00000000E+00
  0.00000000E+00  0.00000000E+00  0.00000000E+00
  0.00000000E+00  0.00000000E+00  0.00000000E+00
  0.00000000E+00  0.00000000E+00  0.00000000E+00
  0.00000000E+00  0.00000000E+00  0.00000000E+00
  0.00000000E+00  0.00000000E+00  0.00000000E+00
  0.00000000E+00  0.00000000E+00  0.00000000E+00
  0.00000000E+00  0.00000000E+00  0.00000000E+00
  0.00000000E+00  0.00000000E+00  0.00000000E+00
  0.00000000E+00  0.00000000E+00  0.00000000E+00
  0.00000000E+00  0.00000000E+00  0.00000000E+00
  0.00000000E+00  0.00000000E+00  0.00000000E+00
  0.00000000E+00  0.00000000E+00  0.00000000E+00
  0.00000000E+00  0.00000000E+00  0.00000000E+00
  0.00000000E+00  0.00000000E+00  0.00000000E+00
  0.00000000E+00  0.00000000E+00  0.00000000E+00
  0.00000000E+00  0.00000000E+00  0.00000000E+00
  0.00000000E+00  0.00000000E+00  0.00000000E+00
  0.00000000E+00  0.00000000E+00  0.00000000E+00
  0.00000000E+00  0.00000000E+00  0.00000000E+00
  0.00000000E+00  0.00000000E+00  0.00000000E+00
  0.00000000E+00  0.00000000E+00  0.00000000E+00
  0.00000000E+00  0.00000000E+00  0.00000000E+00
  0.00000000E+00  0.00000000E+00  0.00000000E+00
  0.00000000E+00  0.00000000E+00  0.00000000E+00
  0.00000000E+00  0.00000000E+00  0.00000000E+00
  0.00000000E+00  0.00000000E+00  0.00000000E+00
