Generated by SUPERCELL
1.0
5.8949380000   	0.0000000000   	0.0000000000   
-3.0423120700  	5.1534190300   	0.0000000000   
0.0000000000   	0.0000000000   	26.9999870000  
O	Ni	H
24	12	12
Selective dynamics
Cartesian
   -1.1072870100     2.0107146600      5.2636204700      T   T   T
   1.8401819900      2.0107146600      5.2636204700      T   T   T
   0.5661184800      3.0822753800      9.7065763300      T   T   T
   3.5135874800      3.0822753800      9.7065763300      T   T   T
   -0.7181392400     4.1460905200      14.1498021900     T   T   T
   2.2293297600      4.1460905200      14.1498021900     T   T   T
   -2.6364007300     4.6271158000      5.2420744800      T   T   T
   0.3110652300      4.6271209600      5.2420744800      T   T   T
   2.0872446700      0.5055864800      9.7064953300      T   T   T
   5.0347136700      0.5055864800      9.7064953300      T   T   T
   0.8109946200      1.5295553800      14.1714021800     T   T   T
   3.7584636200      1.5295553800      14.1714021800     T   T   T
   3.5138361600      1.3371731000      7.3616004600      T   T   T
   0.5663612700      1.3371731000      7.3616004600      T   T   T
   -1.1185699700     3.7785022900      7.6061123400      T   T   T
   1.8288931300      3.7785022900      7.6061123400      T   T   T
   -2.3880613900     4.8228065900      12.0515522000     T   T   T
   0.5594165400      4.8228014300      12.0515522000     T   T   T
   -0.6995832100     2.3834975300      11.8073643100     T   T   T
   2.2478798900      2.3834975300      11.8073643100     T   T   T
   -1.9782427900     3.5934842400      16.1984532000     T   T   T
   0.9692254500      3.5935254700      16.1984532000     T   T   T
   3.0987709000      2.5631405600      3.2149694500      T   T   T
   0.1512958200      2.5631508700      3.2149424500      T   T   T
   2.2763567600      0.6423839900      15.0274637600     T   T   T
   -0.7876225900     2.3047790500      10.7708888100     T   T   T
   2.1598464100      2.3047790500      10.7708888100     T   T   T
   3.8137893400      3.3733198800      15.2488636600     T   T   T
   0.8663232000      3.3733250300      15.2488906600     T   T   T
   3.2027804600      2.7832327800      4.1644239900      T   T   T
   0.2553084100      2.7832379400      4.1644239900      T   T   T
   4.8354199000      0.3608424000      4.3862018900      T   T   T
   1.8879450000      0.3608424000      4.3862018900      T   T   T
   0.6314322200      1.3943657400      8.8400387400      T   T   T
   3.5789012200      1.3943657400      8.8400387400      T   T   T
   -0.6569339700     2.4402263700      13.3172305900     T   T   T
   2.2905291400      2.4402263700      13.3172305900     T   T   T
   3.4161598300      1.2571044200      6.3246659500      T   T   T
   0.4686908300      1.2571044200      6.3246659500      T   T   T
   1.7791408200      3.7166303400      6.0962190600      T   T   T
   -1.1683281800     3.7166303400      6.0962190600      T   T   T
   -1.0277100400     3.8596325700      8.6420748400      T   T   T
   -2.4467884200     4.7702056400      10.5729789100     T   T   T
   0.5006864700      4.7702056400      10.5729789100     T   T   T
   1.9197561100      3.8596274200      8.6420478400      T   T   T
   5.2238257600      0.6423839900      15.0274637600     T   T   T
   -2.2935302400     4.9000048000      13.0890537000     T   T   T
   0.6539387600      4.9000048000      13.0890537000     T   T   T